PROBLEM NAME: small_3_UncorrelatedWithSimilarWeights_n14_m39_c5
KNAPSACK DATA TYPE:
DIMENSION: 14
NUMBER OF ITEMS: 39
CAPACITY OF KNAPSACK: 17803
MIN SPEED: 0.1
MAX SPEED: 1.0
RENTING RATIO: 1.0
EDGE_WEIGHT_TYPE: CEIL_2D
NODE_COORD_SECTION	(INDEX, X, Y): 
1	305	896
2	7	680
3	316	984
4	310	330
5	860	78
6	126	277
7	755	786
8	945	141
9	351	198
10	208	702
11	504	417
12	604	131
13	839	506
14	155	286
ITEMS SECTION	(INDEX, PROFIT, WEIGHT, ASSIGNED NODE NUMBER): 
1	720	1002	2
2	102	1003	2
3	477	1008	2
4	476	1007	3
5	242	1008	3
6	475	1008	3
7	468	1001	4
8	466	1002	4
9	994	1005	4
10	897	1007	5
11	259	1004	5
12	533	1004	5
13	858	1000	6
14	669	1003	6
15	800	1006	6
16	362	1002	7
17	846	1009	7
18	416	1003	7
19	522	1000	8
20	65	1003	8
21	394	1006	8
22	63	1003	9
23	197	1010	9
24	247	1002	9
25	646	1004	10
26	425	1005	10
27	428	1004	10
28	974	1005	11
29	397	1003	11
30	70	1009	11
31	852	1009	12
32	858	1000	12
33	352	1006	12
34	525	1003	13
35	732	1004	13
36	152	1003	13
37	42	1004	14
38	813	1000	14
39	720	1002	14
